(declare-const param2@pos Int)
(declare-const term_to_project_onto20_integralized Int)
(declare-const term_to_project_onto19_integralized Int)
(declare-const param0@pos Int)
(declare-const term_to_project_onto22_integralized Int)
(declare-const term_to_project_onto16_integralized Int)
(declare-const term_to_project_onto4_integralized Int)
(declare-const term_to_project_onto15_integralized Int)
(declare-const term_to_project_onto2_integralized Int)
(declare-const term_to_project_onto17_integralized Int)
(declare-const param2@width Int)
(declare-const __tmpTR__int_1 Int)
(declare-const c Int)
(declare-const param0 Int)
(declare-const term_to_project_onto18_integralized Int)
(declare-const param2 Int)
(declare-const term_to_project_onto21_integralized Int)
(declare-const term_to_project_onto12_integralized Int)
(declare-const term_to_project_onto0_integralized Int)
(declare-const term_to_project_onto7_integralized Int)
(declare-const term_to_project_onto14_integralized Int)
(declare-const term_to_project_onto1_integralized Int)
(declare-const term_to_project_onto6_integralized Int)
(declare-const param1 Int)
(declare-const param1@width Int)
(declare-const term_to_project_onto8_integralized Int)
(declare-const param0@width Int)
(declare-const term_to_project_onto9_integralized Int)
(declare-const term_to_project_onto11_integralized Int)
(declare-const term_to_project_onto3_integralized Int)
(declare-const term_to_project_onto5_integralized Int)
(declare-const term_to_project_onto13_integralized Int)
(declare-const tmp___1 Int)
(declare-const tmp___2 Int)
(declare-const term_to_project_onto_integralized Int)
(declare-const param1@pos Int)
(declare-const term_to_project_onto10_integralized Int)
(assert (exists
         ((|p@width'?1?1| Int) (|p@pos'?2?2| Int) (|tmp___5'?3?3| Int)
            (|tmp___3'?4?4| Int) (|tmp___2'?5?5| Int) (|tmp___1'?6?6| Int)
            (|k'?7?7| Int) (|i'?8?8| Int) (|bpos'?9?9| Int)
            (|cpos'?10?10| Int) (|a'?11?11| Int) (|buff.80'?12?12| Int)
            (|c'?13?13| Int) (|p'?14?14| Int) (|__tmpTR__int_1'?15?15| Int)
            (type_err?16?16 Int) (type_err?17?17 Int) (type_err?18?18 Int)
            (type_err?19?19 Int) (tr?20?20 Int) (tr?21?21 Int) (tr?22?22 Int)
            (phi_buff.80?23?23 Int) (phi_tmp___5?24?24 Int)
            (phi_tmp___5?25?25 Int) (havoc?26?26 Int)
            (phi_param2@width?27?27 Int) (phi_param1@width?28?28 Int)
            (phi_param0@width?29?29 Int) (phi_param2@pos?30?30 Int)
            (phi_param1@pos?31?31 Int) (phi_param0@pos?32?32 Int)
            (phi_param2?33?33 Int) (phi_param1?34?34 Int)
            (phi_param0?35?35 Int) (phi_tmp___5?36?36 Int) (phi_k?37?37 Int)
            (phi_bpos?38?38 Int) (phi_cpos?39?39 Int) (phi_a?40?40 Int)
            (phi_buff.80?41?41 Int) (tr?42?42 Int) (phi_buff.80?43?43 Int)
            (phi_tmp___3?44?44 Int) (phi_tmp___3?45?45 Int)
            (phi_tmp___3?46?46 Int) (phi_buff.80?47?47 Int) (phi_c?48?48 Int)
            (phi___tmpTR__int_1?49?49 Int) (phi_buff.80?50?50 Int)
            (tr?51?51 Int) (phi_c?52?52 Int) (tr?53?53 Int) (phi_c?54?54 Int)
            (tr?55?55 Int) (phi_buff.80?56?56 Int) (havoc?57?57 Int)
            (phi_tmp___2?58?58 Int) (phi_tmp___2?59?59 Int)
            (type_err?60?60 Int) (type_err?61?61 Int) (type_err?62?62 Int)
            (type_err?63?63 Int) (tr?64?64 Int) (tr?65?65 Int) (tr?66?66 Int)
            (phi_tmp___1?67?67 Int) (phi_tmp___1?68?68 Int)
            (phi_bpos?69?69 Int) (|param2@width'?70?70| Int)
            (|param1@width'?71?71| Int) (|param0@width'?72?72| Int)
            (|param2@pos'?73?73| Int) (|param1@pos'?74?74| Int)
            (|param0@pos'?75?75| Int) (|param2'?76?76| Int)
            (|param1'?77?77| Int) (|param0'?78?78| Int) (tmp___5?79?79 Int)
            (a?80?80 Int) (tmp___3?81?81 Int) (cpos?82?82 Int)
            (bpos?83?83 Int) (p?84?84 Int) (p@pos?85?85 Int)
            (p@width?86?86 Int) (i?87?87 Int) (buff.80?88?88 Int)
            (k?89?89 Int) (no_ascii?90?90 Int) (len?91?91 Int)
            (bpstart?92?92 Int) (cpstart?93?93 Int))
         (and (<= (- a?80?80) 0) (<= (+ (- cpos?82?82) 1) 0)
                (<= (+ (- bpos?83?83) 1) 0) (<= (- i?87?87) 0)
                (<= (- no_ascii?90?90) 0) (<= (+ (- len?91?91) 1) 0)
                (<= (+ (- bpstart?92?92) 1) 0) (<= (+ (- cpstart?93?93) 1) 0)
                (<= (+ (- len?91?91) i?87?87 1) 0)
                (or (and (or (<= (+ (- bpstart?92?92) bpos?83?83 -23) 0)
                               (<= (+ bpstart?92?92 (- bpos?83?83) 25) 0))
                           (= (+ (- phi_bpos?69?69) bpos?83?83 3) 0))
                      (and (= (+ (- bpstart?92?92) bpos?83?83 -24) 0)
                             (= (+ (- phi_bpos?69?69) bpos?83?83 4) 0)))
                (or (and (<= (- phi_bpos?69?69) 0)
                           (or (and (<= (+ (- phi_bpos?69?69) 82) 0)
                                      (= (- phi_tmp___1?68?68) 0))
                                 (and (<= (+ phi_bpos?69?69 -81) 0)
                                        (= (+ (- phi_tmp___1?68?68) 1) 0)))
                           (= (+ (- phi_tmp___1?67?67) phi_tmp___1?68?68) 0))
                      (and (<= (+ phi_bpos?69?69 1) 0)
                             (= (- phi_tmp___1?67?67) 0)))
                (or (<= (+ phi_tmp___1?67?67 1) 0)
                      (<= (+ (- phi_tmp___1?67?67) 1) 0))
                (or (and (<= (+ (- phi_bpos?69?69) -2) 0)
                           (or (and (<= (+ (- phi_bpos?69?69) 80) 0)
                                      (= (- phi_tmp___2?59?59) 0))
                                 (and (<= (+ phi_bpos?69?69 -79) 0)
                                        (= (+ (- phi_tmp___2?59?59) 1) 0)))
                           (= (+ (- phi_tmp___2?58?58) phi_tmp___2?59?59) 0))
                      (and (<= (+ phi_bpos?69?69 3) 0)
                             (= (- phi_tmp___2?58?58) 0)))
                (or (<= (+ phi_tmp___2?58?58 1) 0)
                      (<= (+ (- phi_tmp___2?58?58) 1) 0))
                (or (= (+ (- phi_buff.80?56?56) buff.80?88?88) 0)
                      (= (+ tr?55?55 (- phi_buff.80?56?56)) 0))
                (or (and (= no_ascii?90?90 0)
                           (or (and (<= (+ (- tr?66?66) 32) 0)
                                      (or (and (<= (+ tr?66?66 -126) 0)
                                                 (= (+ (- phi_c?54?54)
                                                         tr?66?66) 0))
                                            (and (<= (+ (- tr?66?66) 127) 0)
                                                   (= (+ tr?53?53
                                                           (- phi_c?54?54)) 0)))
                                      (= (+ (- phi_c?52?52) phi_c?54?54) 0))
                                 (and (<= (+ tr?66?66 -31) 0)
                                        (= (+ tr?51?51 (- phi_c?52?52)) 0)))
                           (or (= (+ (- phi_buff.80?50?50) phi_buff.80?56?56) 0)
                                 (= (+ (- phi_buff.80?50?50) phi_c?52?52) 0))
                           (= (+ (- phi___tmpTR__int_1?49?49) havoc?57?57) 0)
                           (= (+ (- phi_c?48?48) phi_c?52?52) 0)
                           (= (+ (- phi_buff.80?47?47) phi_buff.80?50?50) 0)
                           (= (+ (- phi_tmp___3?46?46) tmp___3?81?81) 0))
                      (and (or (<= (+ no_ascii?90?90 1) 0)
                                 (<= (+ (- no_ascii?90?90) 1) 0))
                             (or (and (<= (- cpos?82?82) 0)
                                        (or (and (<= (+ (- cpos?82?82) 82) 0)
                                                   (= (- phi_tmp___3?45?45) 0))
                                              (and (<= (+ cpos?82?82 -81) 0)
                                                     (= (+ (- phi_tmp___3?45?45)
                                                             1) 0)))
                                        (= (+ (- phi_tmp___3?44?44)
                                                phi_tmp___3?45?45) 0))
                                   (and (<= (+ cpos?82?82 1) 0)
                                          (= (- phi_tmp___3?44?44) 0)))
                             (or (<= (+ phi_tmp___3?44?44 1) 0)
                                   (<= (+ (- phi_tmp___3?44?44) 1) 0))
                             (or (= (+ (- phi_buff.80?43?43)
                                         phi_buff.80?56?56) 0)
                                   (= (+ tr?42?42 (- phi_buff.80?43?43)) 0))
                             (= (+ (- phi___tmpTR__int_1?49?49) cpos?82?82) 0)
                             (= (+ (- phi_c?48?48) tr?66?66) 0)
                             (= (+ phi_buff.80?43?43 (- phi_buff.80?47?47)) 0)
                             (= (+ phi_tmp___3?44?44 (- phi_tmp___3?46?46)) 0)))
                (or (and (<= (+ (- cpstart?93?93) cpos?82?82 -14) 0)
                           (= (+ (- phi_buff.80?41?41) phi_buff.80?47?47) 0)
                           (= (+ (- phi_a?40?40) a?80?80) 0)
                           (= (+ (- phi_cpos?39?39) cpos?82?82 1) 0)
                           (= (+ (- phi_bpos?38?38) phi_bpos?69?69) 0)
                           (= (+ (- phi_k?37?37) k?89?89) 0)
                           (= (+ (- phi_tmp___5?36?36) tmp___5?79?79) 0)
                           (= (+ (- phi_param0?35?35) tr?65?65 phi_bpos?69?69) 0)
                           (= (+ (- phi_param1?34?34) tr?64?64) 0)
                           (= (+ (- phi_param2?33?33) tr?66?66) 0)
                           (= (+ (- phi_param0@pos?32?32) phi_bpos?69?69) 0)
                           (= (+ (- phi_param1@pos?31?31) type_err?63?63) 0)
                           (= (+ (- phi_param2@pos?30?30) type_err?62?62) 0)
                           (= (+ (- phi_param0@width?29?29) 1) 0)
                           (= (+ (- phi_param1@width?28?28) type_err?61?61) 0)
                           (= (+ (- phi_param2@width?27?27) type_err?60?60) 0))
                      (and (<= (+ cpstart?93?93 (- cpos?82?82) 15) 0)
                             (or (and (<= (+ (- havoc?26?26) -1) 0)
                                        (or (and (<= (+ (- havoc?26?26) 81) 0)
                                                   (= (- phi_tmp___5?25?25) 0))
                                              (and (<= (+ havoc?26?26 -80) 0)
                                                     (= (+ (- phi_tmp___5?25?25)
                                                             1) 0)))
                                        (= (+ (- phi_tmp___5?24?24)
                                                phi_tmp___5?25?25) 0))
                                   (and (<= (+ havoc?26?26 2) 0)
                                          (= (- phi_tmp___5?24?24) 0)))
                             (or (<= (+ phi_tmp___5?24?24 1) 0)
                                   (<= (+ (- phi_tmp___5?24?24) 1) 0))
                             (or (= (+ (- phi_buff.80?23?23)
                                         phi_buff.80?47?47) 0)
                                   (= (+ tr?22?22 (- phi_buff.80?23?23)) 0))
                             (= (+ phi_buff.80?23?23 (- phi_buff.80?41?41)) 0)
                             (= (+ (- phi_a?40?40) a?80?80 16) 0)
                             (= (+ (- phi_cpos?39?39) cpstart?93?93) 0)
                             (= (+ (- phi_bpos?38?38) bpstart?92?92) 0)
                             (= (+ havoc?26?26 (- phi_k?37?37)) 0)
                             (= (+ phi_tmp___5?24?24 (- phi_tmp___5?36?36)) 0)
                             (= (+ tr?21?21 (- phi_param0?35?35) 1) 0)
                             (= (+ tr?20?20 (- phi_param1?34?34)) 0)
                             (= (+ (- phi_param2?33?33) a?80?80 16) 0)
                             (= (+ (- phi_param0@pos?32?32) 1) 0)
                             (= (+ type_err?19?19 (- phi_param1@pos?31?31)) 0)
                             (= (+ type_err?18?18 (- phi_param2@pos?30?30)) 0)
                             (= (+ (- phi_param0@width?29?29) 1) 0)
                             (= (+ type_err?17?17 (- phi_param1@width?28?28)) 0)
                             (= (+ type_err?16?16 (- phi_param2@width?27?27)) 0)))
                (= (+ |param2@width'?70?70| (- phi_param2@width?27?27)) 0)
                (= (+ |param1@width'?71?71| (- phi_param1@width?28?28)) 0)
                (= (+ |param0@width'?72?72| (- phi_param0@width?29?29)) 0)
                (= (+ (- p@width?86?86) |p@width'?1?1|) 0)
                (= (+ |param2@pos'?73?73| (- phi_param2@pos?30?30)) 0)
                (= (+ |param1@pos'?74?74| (- phi_param1@pos?31?31)) 0)
                (= (+ |param0@pos'?75?75| (- phi_param0@pos?32?32)) 0)
                (= (+ (- p@pos?85?85) |p@pos'?2?2| -1) 0)
                (= (+ |param2'?76?76| (- phi_param2?33?33)) 0)
                (= (+ |param1'?77?77| (- phi_param1?34?34)) 0)
                (= (+ |param0'?78?78| (- phi_param0?35?35)) 0)
                (= (+ |tmp___5'?3?3| (- phi_tmp___5?36?36)) 0)
                (= (+ |tmp___3'?4?4| (- phi_tmp___3?46?46)) 0)
                (= (+ |tmp___2'?5?5| (- phi_tmp___2?58?58)) 0)
                (= (+ |tmp___1'?6?6| (- phi_tmp___1?67?67)) 0)
                (= (+ |k'?7?7| (- phi_k?37?37)) 0)
                (= (+ |i'?8?8| (- i?87?87) -1) 0)
                (= (+ |bpos'?9?9| (- phi_bpos?38?38)) 0)
                (= (+ |cpos'?10?10| (- phi_cpos?39?39)) 0)
                (= (+ |a'?11?11| (- phi_a?40?40)) 0)
                (= (+ |buff.80'?12?12| (- phi_buff.80?41?41)) 0)
                (= (+ |c'?13?13| (- phi_c?48?48)) 0)
                (= (+ (- p?84?84) |p'?14?14| -1) 0)
                (= (+ |__tmpTR__int_1'?15?15| (- phi___tmpTR__int_1?49?49)) 0)
                (= (+ term_to_project_onto22_integralized
                        (- (+ |__tmpTR__int_1'?15?15| (- __tmpTR__int_1)))) 0)
                (= (+ term_to_project_onto21_integralized
                        (- (+ |p'?14?14| (- p?84?84)))) 0)
                (= (+ term_to_project_onto20_integralized
                        (- (+ |c'?13?13| (- c)))) 0)
                (= (+ term_to_project_onto19_integralized
                        (- (+ |buff.80'?12?12| (- buff.80?88?88)))) 0)
                (= (+ term_to_project_onto18_integralized
                        (- (+ |a'?11?11| (- a?80?80)))) 0)
                (= (+ term_to_project_onto17_integralized
                        (- (+ |cpos'?10?10| (- cpos?82?82)))) 0)
                (= (+ term_to_project_onto16_integralized
                        (- (+ |bpos'?9?9| (- bpos?83?83)))) 0)
                (= (+ term_to_project_onto15_integralized
                        (- (+ |i'?8?8| (- i?87?87)))) 0)
                (= (+ term_to_project_onto14_integralized
                        (- (+ |k'?7?7| (- k?89?89)))) 0)
                (= (+ term_to_project_onto13_integralized
                        (- (+ |tmp___1'?6?6| (- tmp___1)))) 0)
                (= (+ term_to_project_onto12_integralized
                        (- (+ |tmp___2'?5?5| (- tmp___2)))) 0)
                (= (+ term_to_project_onto11_integralized
                        (- (+ |tmp___3'?4?4| (- tmp___3?81?81)))) 0)
                (= (+ term_to_project_onto10_integralized
                        (- (+ |tmp___5'?3?3| (- tmp___5?79?79)))) 0)
                (= (+ term_to_project_onto9_integralized
                        (- (+ |param0'?78?78| (- param0)))) 0)
                (= (+ term_to_project_onto8_integralized
                        (- (+ |param1'?77?77| (- param1)))) 0)
                (= (+ term_to_project_onto7_integralized
                        (- (+ |param2'?76?76| (- param2)))) 0)
                (= (+ term_to_project_onto6_integralized
                        (- (+ |p@pos'?2?2| (- p@pos?85?85)))) 0)
                (= (+ term_to_project_onto5_integralized
                        (- (+ |param0@pos'?75?75| (- param0@pos)))) 0)
                (= (+ term_to_project_onto4_integralized
                        (- (+ |param1@pos'?74?74| (- param1@pos)))) 0)
                (= (+ term_to_project_onto3_integralized
                        (- (+ |param2@pos'?73?73| (- param2@pos)))) 0)
                (= (+ term_to_project_onto2_integralized
                        (- (+ |p@width'?1?1| (- p@width?86?86)))) 0)
                (= (+ term_to_project_onto1_integralized
                        (- (+ |param0@width'?72?72| (- param0@width)))) 0)
                (= (+ term_to_project_onto0_integralized
                        (- (+ |param1@width'?71?71| (- param1@width)))) 0)
                (= (+ term_to_project_onto_integralized
                        (- (+ |param2@width'?70?70| (- param2@width)))) 0))))
(check-sat)